5 5
4 4 3 17 5 19 2 10 1 12 5 1 2 2 13 4 9 3 13 5 16 1 2 10 1 2 13
5 3 4 2 5 17 1 13 2 2 6 3 11 1 3 3 5 5 15 2 9 3 2 1 14 4 11 1 1 11
4 4 2 20 4 6 1 13 5 20 3 1 8 5 7 4 20 3 3 10 2 3 1 8 3 1 10 3 16 2 12
6 4 2 9 1 19 4 10 5 6 5 1 6 5 8 3 12 4 9 2 20 5 1 19 4 9 3 7 5 14 2 18 3 4 13 1 13 3 15 5 2 20 1 7 3 6 5 20 4 2 1 2 7
8 5 5 13 3 17 2 11 1 13 4 19 4 4 19 5 12 3 16 1 5 1 1 5 1 3 5 4 1 3 2 6 3 8 5 17 2 1 12 5 2 4 2 12 4 14 1 18 3 15 4 3 11 2 6 1 20 4 4